NAME : random_0
COMMENT : 60 random nodes
TYPE : TSP
DIMENSION : 60
EDGE_WEIGHT_TYPE : EUC_2D
NODE_COORD_SECTION
1 758 198
2 824 604
3 852 870
4 724 941
5 666 65
6 383 372
7 430 501
8 959 443
9 56 216
10 379 251
11 670 660
12 406 979
13 926 229
14 621 722
15 474 209
16 675 626
17 361 136
18 772 669
19 117 510
20 22 4
21 349 345
22 393 730
23 81 406
24 780 961
25 811 46
26 897 140
27 93 683
28 560 105
29 614 823
30 171 131
31 110 770
32 424 698
33 301 377
34 193 848
35 79 136
36 306 921
37 123 532
38 624 486
39 728 503
40 75 932
41 379 725
42 764 291
43 126 271
44 568 242
45 736 910
46 528 560
47 1 427
48 181 192
49 200 408
50 268 916
51 653 949
52 90 477
53 360 293
54 176 839
55 372 493
56 616 111
57 678 50
58 524 61
59 302 680
60 180 309
EOF